NAME /Users/henri/Research/solvers/instances/idol-instances/robust/collection/cbp_Subramanyam_et_al_2020/CapBud_N15_2/models/uncertain_technology_matrix/
ROWS
 N  OBJ
 L  capacity
 L  c_1235
 L  c_1236
 L  c_1237
 L  c_1238
 L  c_1239
 L  c_1240
 L  c_1241
 L  c_1242
 L  c_1243
 L  c_1244
 L  c_1245
 L  c_1246
 L  c_1247
 L  c_1248
 L  c_1249
COLUMNS
    MARKER    'MARKER'                 'INTORG'
    x_0        OBJ        7.98934
    x_0        c_1235     1
    x_0        capacity   1.59787
    x_1        OBJ        0.0470326
    x_1        c_1236     1
    x_1        capacity   0.00940652
    x_2        OBJ        5.60705
    x_2        c_1237     1
    x_2        capacity   1.12141
    x_3        OBJ        6.2944
    x_3        c_1238     1
    x_3        capacity   1.25888
    x_4        OBJ        5.16482
    x_4        c_1239     1
    x_4        capacity   1.03296
    x_5        OBJ        8.21486
    x_5        c_1240     1
    x_5        capacity   1.64297
    x_6        OBJ        3.75877
    x_6        c_1241     1
    x_6        capacity   0.751754
    x_7        OBJ        6.07937
    x_7        c_1242     1
    x_7        capacity   1.21587
    x_8        OBJ        1.15077
    x_8        c_1243     1
    x_8        capacity   0.230155
    x_9        OBJ        7.66501
    x_9        c_1244     1
    x_9        capacity   1.533
    x_10       OBJ        1.26734
    x_10       c_1245     1
    x_10       capacity   0.253467
    x_11       OBJ        7.56821
    x_11       c_1246     1
    x_11       capacity   1.51364
    x_12       OBJ        3.17167
    x_12       c_1247     1
    x_12       capacity   0.634333
    x_13       OBJ        0.146459
    x_13       c_1248     1
    x_13       capacity   0.0292918
    x_14       OBJ        4.49031
    x_14       c_1249     1
    x_14       capacity   0.898062
    y_0        OBJ        6.39147
    y_0        c_1235     1
    y_0        capacity   1.59787
    y_1        OBJ        0.0376261
    y_1        c_1236     1
    y_1        capacity   0.00940652
    y_2        OBJ        4.48564
    y_2        c_1237     1
    y_2        capacity   1.12141
    y_3        OBJ        5.03552
    y_3        c_1238     1
    y_3        capacity   1.25888
    y_4        OBJ        4.13186
    y_4        c_1239     1
    y_4        capacity   1.03296
    y_5        OBJ        6.57189
    y_5        c_1240     1
    y_5        capacity   1.64297
    y_6        OBJ        3.00702
    y_6        c_1241     1
    y_6        capacity   0.751754
    y_7        OBJ        4.86349
    y_7        c_1242     1
    y_7        capacity   1.21587
    y_8        OBJ        0.920619
    y_8        c_1243     1
    y_8        capacity   0.230155
    y_9        OBJ        6.13201
    y_9        c_1244     1
    y_9        capacity   1.533
    y_10       OBJ        1.01387
    y_10       c_1245     1
    y_10       capacity   0.253467
    y_11       OBJ        6.05457
    y_11       c_1246     1
    y_11       capacity   1.51364
    y_12       OBJ        2.53733
    y_12       c_1247     1
    y_12       capacity   0.634333
    y_13       OBJ        0.117167
    y_13       c_1248     1
    y_13       capacity   0.0292918
    y_14       OBJ        3.59225
    y_14       c_1249     1
    y_14       capacity   0.898062
    MARKER    'MARKER'                 'INTEND'
RHS
    RHS       capacity   34.3077
    RHS       c_1235     1
    RHS       c_1236     1
    RHS       c_1237     1
    RHS       c_1238     1
    RHS       c_1239     1
    RHS       c_1240     1
    RHS       c_1241     1
    RHS       c_1242     1
    RHS       c_1243     1
    RHS       c_1244     1
    RHS       c_1245     1
    RHS       c_1246     1
    RHS       c_1247     1
    RHS       c_1248     1
    RHS       c_1249     1
BOUNDS
 LI BND       x_0        0
 UI BND       x_0        1
 LI BND       x_1        0
 UI BND       x_1        1
 LI BND       x_2        0
 UI BND       x_2        1
 LI BND       x_3        0
 UI BND       x_3        1
 LI BND       x_4        0
 UI BND       x_4        1
 LI BND       x_5        0
 UI BND       x_5        1
 LI BND       x_6        0
 UI BND       x_6        1
 LI BND       x_7        0
 UI BND       x_7        1
 LI BND       x_8        0
 UI BND       x_8        1
 LI BND       x_9        0
 UI BND       x_9        1
 LI BND       x_10       0
 UI BND       x_10       1
 LI BND       x_11       0
 UI BND       x_11       1
 LI BND       x_12       0
 UI BND       x_12       1
 LI BND       x_13       0
 UI BND       x_13       1
 LI BND       x_14       0
 UI BND       x_14       1
 LI BND       y_0        0
 UI BND       y_0        1
 LI BND       y_1        0
 UI BND       y_1        1
 LI BND       y_2        0
 UI BND       y_2        1
 LI BND       y_3        0
 UI BND       y_3        1
 LI BND       y_4        0
 UI BND       y_4        1
 LI BND       y_5        0
 UI BND       y_5        1
 LI BND       y_6        0
 UI BND       y_6        1
 LI BND       y_7        0
 UI BND       y_7        1
 LI BND       y_8        0
 UI BND       y_8        1
 LI BND       y_9        0
 UI BND       y_9        1
 LI BND       y_10       0
 UI BND       y_10       1
 LI BND       y_11       0
 UI BND       y_11       1
 LI BND       y_12       0
 UI BND       y_12       1
 LI BND       y_13       0
 UI BND       y_13       1
 LI BND       y_14       0
 UI BND       y_14       1
ENDATA
